0 0 0 0
0 1 0 0
0 2 2 0
0 3 2 0
0 4 1 4
0 5 2 8
0 6 1 8
0 7 1 4
0 8 0 8
0 9 2 9
0 10 2 12
0 11 2 10
0 12 1 15
0 13 2 10
0 14 0 18
0 15 1 18
0 16 0 18
0 17 1 12
0 18 2 15
0 19 2 15
0 20 0 4
0 21 2 21
0 22 1 24
0 23 0 30
0 24 2 32
0 25 0 24
0 26 1 24
0 27 2 24
0 28 2 33
0 29 1 42
0 30 1 33
0 31 0 46
